GLPSOL--GLPK LP/MIP Solver 5.0
Parameter(s) specified in the command line:
 --lp ../modeles/3_24.lp --log 3_24.log
Reading problem data from '../modeles/3_24.lp'...
85 rows, 150 columns, 513 non-zeros
72 integer variables, all of which are binary
244 lines were read
GLPK Integer Optimizer 5.0
85 rows, 150 columns, 513 non-zeros
72 integer variables, all of which are binary
Preprocessing...
66 constraint coefficient(s) were reduced
85 rows, 147 columns, 510 non-zeros
72 integer variables, all of which are binary
Scaling...
 A: min|aij| =  2.778e-02  max|aij| =  4.000e+00  ratio =  1.440e+02
GM: min|aij| =  2.887e-01  max|aij| =  3.464e+00  ratio =  1.200e+01
EQ: min|aij| =  8.333e-02  max|aij| =  1.000e+00  ratio =  1.200e+01
2N: min|aij| =  5.556e-02  max|aij| =  1.440e+00  ratio =  2.592e+01
Constructing initial basis...
Size of triangular part is 85
Solving LP relaxation...
GLPK Simplex Optimizer 5.0
85 rows, 147 columns, 510 non-zeros
      0: obj =   6.000000000e+00 inf =   1.450e+01 (7)
     17: obj =  -2.968197880e-01 inf =   0.000e+00 (0)
*    60: obj =  -1.714285714e+00 inf =   4.916e-17 (0)
OPTIMAL LP SOLUTION FOUND
Integer optimization begins...
Long-step dual simplex will be used
+    60: mip =     not found yet >=              -inf        (1; 0)
+    74: >>>>>  -1.714285714e+00 >=  -1.714285714e+00 < 0.1% (14; 0)
+    74: mip =  -1.714285714e+00 >=     tree is empty   0.0% (0; 27)
INTEGER OPTIMAL SOLUTION FOUND
Time used:   0.0 secs
Memory used: 0.3 Mb (275685 bytes)
